Welcome to the CBC MILP Solver 
Version: 2.10.12 
Build Date: Aug 20 2024 

command line - /opt/homebrew/bin/cbc computational_data/real_data/lp/wdbc_trial_016_margin.lp seconds 10.0 solve solu computational_data/real_data/solutions/wdbc_trial_016_margin.sol (default strategy 1)
 CoinLpIO::readLp(): Maximization problem reformulated as minimization
Coin0009I Switching back to maximization to get correct duals etc
seconds was changed from 1e+100 to 10
Continuous objective value is 111.008 - 0.00 seconds
Cgl0003I 0 fixed, 0 tightened bounds, 54 strengthened rows, 0 substitutions
Cgl0003I 0 fixed, 0 tightened bounds, 56 strengthened rows, 0 substitutions
Cgl0003I 0 fixed, 0 tightened bounds, 44 strengthened rows, 0 substitutions
Cgl0003I 0 fixed, 0 tightened bounds, 26 strengthened rows, 0 substitutions
Cgl0003I 0 fixed, 0 tightened bounds, 14 strengthened rows, 0 substitutions
Cgl0003I 0 fixed, 0 tightened bounds, 5 strengthened rows, 0 substitutions
Cgl0003I 0 fixed, 0 tightened bounds, 4 strengthened rows, 0 substitutions
Cgl0003I 0 fixed, 0 tightened bounds, 4 strengthened rows, 0 substitutions
Cgl0003I 0 fixed, 0 tightened bounds, 4 strengthened rows, 0 substitutions
Cgl0004I processed model has 76 rows, 43 columns (43 integer (42 of which binary)) and 728 elements
Cbc0038I Initial state - 14 integers unsatisfied sum - 3.83333
Cbc0038I Pass   1: suminf.    0.55556 (3) obj. 110.452 iterations 9
Cbc0038I Solution found of 108.008
Cbc0038I Cleaned solution of 108.008
Cbc0038I Before mini branch and bound, 28 integers at bound fixed and 0 continuous
Cbc0038I Full problem 76 rows 43 columns, reduced to 11 rows 8 columns
Cbc0038I Mini branch and bound did not improve solution (0.01 seconds)
Cbc0038I Round again with cutoff of 108.302
Cbc0038I Pass   2: suminf.    0.55556 (3) obj. 110.452 iterations 0
Cbc0038I Pass   3: suminf.    0.29445 (1) obj. 108.302 iterations 8
Cbc0038I Pass   4: suminf.    0.44444 (1) obj. 108.452 iterations 2
Cbc0038I Pass   5: suminf.    0.59441 (2) obj. 108.302 iterations 19
Cbc0038I Pass   6: suminf.    0.29448 (1) obj. 108.302 iterations 9
Cbc0038I Pass   7: suminf.    0.44444 (1) obj. 108.452 iterations 1
Cbc0038I Pass   8: suminf.    3.52037 (15) obj. 108.302 iterations 19
Cbc0038I Pass   9: suminf.    0.29445 (1) obj. 108.302 iterations 21
Cbc0038I Pass  10: suminf.    0.29445 (1) obj. 108.302 iterations 6
Cbc0038I Pass  11: suminf.    0.44444 (1) obj. 108.452 iterations 3
Cbc0038I Pass  12: suminf.    0.96112 (3) obj. 108.302 iterations 8
Cbc0038I Pass  13: suminf.    0.96112 (3) obj. 108.302 iterations 3
Cbc0038I Pass  14: suminf.    0.55556 (2) obj. 108.341 iterations 5
Cbc0038I Pass  15: suminf.    0.51668 (2) obj. 108.302 iterations 1
Cbc0038I Pass  16: suminf.    0.96112 (3) obj. 108.302 iterations 5
Cbc0038I Pass  17: suminf.    2.40741 (9) obj. 108.415 iterations 18
Cbc0038I Pass  18: suminf.    0.29445 (1) obj. 108.302 iterations 13
Cbc0038I Pass  19: suminf.    0.29445 (1) obj. 108.302 iterations 1
Cbc0038I Pass  20: suminf.    0.44444 (1) obj. 108.452 iterations 1
Cbc0038I Pass  21: suminf.    0.96112 (3) obj. 108.302 iterations 16
Cbc0038I Pass  22: suminf.    0.96112 (3) obj. 108.302 iterations 13
Cbc0038I Pass  23: suminf.    0.55556 (2) obj. 108.341 iterations 4
Cbc0038I Pass  24: suminf.    0.51668 (2) obj. 108.302 iterations 2
Cbc0038I Pass  25: suminf.    0.96112 (3) obj. 108.302 iterations 3
Cbc0038I Pass  26: suminf.    3.28888 (17) obj. 108.302 iterations 29
Cbc0038I Pass  27: suminf.    0.51668 (2) obj. 108.302 iterations 22
Cbc0038I Pass  28: suminf.    0.51668 (2) obj. 108.302 iterations 0
Cbc0038I Pass  29: suminf.    0.96112 (3) obj. 108.302 iterations 3
Cbc0038I Pass  30: suminf.    0.96112 (3) obj. 108.302 iterations 1
Cbc0038I Pass  31: suminf.    0.44444 (1) obj. 108.452 iterations 5
Cbc0038I No solution found this major pass
Cbc0038I Before mini branch and bound, 11 integers at bound fixed and 0 continuous
Cbc0038I Full problem 76 rows 43 columns, reduced to 59 rows 32 columns
Cbc0038I Mini branch and bound did not improve solution (0.01 seconds)
Cbc0038I After 0.01 seconds - Feasibility pump exiting with objective of 108.008 - took 0.01 seconds
Cbc0012I Integer solution of 108.00759 found by feasibility pump after 0 iterations and 0 nodes (0.01 seconds)
Cbc0038I Full problem 76 rows 43 columns, reduced to 11 rows 8 columns
Cbc0031I 6 added rows had average density of 17.833333
Cbc0013I At root node, 10 cuts changed objective from 110.95204 to 108.00759 in 3 passes
Cbc0014I Cut generator 0 (Probing) - 0 row cuts average 0.0 elements, 0 column cuts (0 active)  in 0.000 seconds - new frequency is -100
Cbc0014I Cut generator 1 (Gomory) - 15 row cuts average 23.5 elements, 0 column cuts (0 active)  in 0.000 seconds - new frequency is 1
Cbc0014I Cut generator 2 (Knapsack) - 2 row cuts average 7.5 elements, 0 column cuts (0 active)  in 0.000 seconds - new frequency is 1
Cbc0014I Cut generator 3 (Clique) - 0 row cuts average 0.0 elements, 0 column cuts (0 active)  in 0.000 seconds - new frequency is -100
Cbc0014I Cut generator 4 (MixedIntegerRounding2) - 0 row cuts average 0.0 elements, 0 column cuts (0 active)  in 0.000 seconds - new frequency is -100
Cbc0014I Cut generator 5 (FlowCover) - 0 row cuts average 0.0 elements, 0 column cuts (0 active)  in 0.000 seconds - new frequency is -100
Cbc0014I Cut generator 6 (TwoMirCuts) - 26 row cuts average 22.0 elements, 0 column cuts (0 active)  in 0.000 seconds - new frequency is 1
Cbc0001I Search completed - best objective 108.007592, took 49 iterations and 0 nodes (0.02 seconds)
Cbc0035I Maximum depth 0, 9 variables fixed on reduced cost
Cuts at root node changed objective from 110.952 to 108.008
Probing was tried 3 times and created 0 cuts of which 0 were active after adding rounds of cuts (0.000 seconds)
Gomory was tried 3 times and created 15 cuts of which 0 were active after adding rounds of cuts (0.000 seconds)
Knapsack was tried 3 times and created 2 cuts of which 0 were active after adding rounds of cuts (0.000 seconds)
Clique was tried 3 times and created 0 cuts of which 0 were active after adding rounds of cuts (0.000 seconds)
MixedIntegerRounding2 was tried 3 times and created 0 cuts of which 0 were active after adding rounds of cuts (0.000 seconds)
FlowCover was tried 3 times and created 0 cuts of which 0 were active after adding rounds of cuts (0.000 seconds)
TwoMirCuts was tried 3 times and created 26 cuts of which 0 were active after adding rounds of cuts (0.000 seconds)
ZeroHalf was tried 1 times and created 0 cuts of which 0 were active after adding rounds of cuts (0.000 seconds)

Result - Optimal solution found

Objective value:                108.00759200
Enumerated nodes:               0
Total iterations:               49
Time (CPU seconds):             0.02
Time (Wallclock seconds):       0.02

Total time (CPU seconds):       0.02   (Wallclock seconds):       0.02

